Version identifier: 22.1.0.0 | 2022-03-09 | 1a383f8ce
CPXPARAM_Threads                                 1
CPXPARAM_MIP_Strategy_VariableSelect             3
CPXPARAM_TimeLimit                               599.99998338399996
1 of 1 MIP starts provided solutions.
MIP start 'm1' defined initial solution with objective 1.0000.
Tried aggregator 2 times.
MIP Presolve eliminated 43 rows and 1 columns.
MIP Presolve added 36 rows and 9 columns.
MIP Presolve modified 52 coefficients.
Aggregator did 9 substitutions.
Reduced MIP has 4505 rows, 10500 columns, and 213226 nonzeros.
Reduced MIP has 10500 binaries, 0 generals, 0 SOSs, and 0 indicators.
Presolve time = 0.31 sec. (407.00 ticks)
Probing time = 0.04 sec. (24.63 ticks)
Tried aggregator 1 time.
Detecting symmetries...
MIP Presolve modified 16 coefficients.
Reduced MIP has 4505 rows, 10500 columns, and 213394 nonzeros.
Reduced MIP has 10500 binaries, 0 generals, 0 SOSs, and 0 indicators.
Presolve time = 0.22 sec. (323.01 ticks)
Probing time = 0.04 sec. (24.64 ticks)
Clique table members: 3490.
MIP emphasis: balance optimality and feasibility.
MIP search method: dynamic search.
Parallel mode: none, using 1 thread.
Root relaxation solution time = 4.62 sec. (4827.05 ticks)

        Nodes                                         Cuts/
   Node  Left     Objective  IInf  Best Integer    Best Bound    ItCnt     Gap

*     0+    0                            1.0000   125250.0000              --- 
      0     0      500.0000  2071        1.0000      500.0000     9758     --- 
*     0+    0                          263.0000      500.0000            90.11%
*     0+    0                          499.0000      500.0000             0.20%
      0     0        cutoff            499.0000      500.0000     9758    0.20%
Detecting symmetries...
      0     2      500.0000    20      499.0000      500.0000     9758    0.20%
Elapsed time = 32.70 sec. (30448.63 ticks, tree = 0.01 MB, solutions = 3)
      1     3      500.0000   342      499.0000      500.0000    25252    0.20%
      2     4      500.0000   167      499.0000      500.0000    28042    0.20%
      3     5      500.0000   250      499.0000      500.0000    35311    0.20%
      4     6      500.0000   199      499.0000      500.0000    35594    0.20%
      5     7      500.0000   209      499.0000      500.0000    35992    0.20%
      6     8      500.0000   184      499.0000      500.0000    43216    0.20%
      7     9      500.0000   247      499.0000      500.0000    49831    0.20%
      8    10      500.0000   166      499.0000      500.0000    50817    0.20%
      9    11      500.0000   161      499.0000      500.0000    52529    0.20%
     10    12      500.0000   175      499.0000      500.0000    59001    0.20%
Elapsed time = 60.61 sec. (54828.70 ticks, tree = 0.21 MB, solutions = 3)
     12    14      500.0000   164      499.0000      500.0000    61054    0.20%
     14    16      500.0000   144      499.0000      500.0000    67554    0.20%
     15    17      500.0000   429      499.0000      500.0000    78415    0.20%
     17    19      500.0000   145      499.0000      500.0000    82533    0.20%
     18    20      500.0000   132      499.0000      500.0000    85963    0.20%
     19    21      500.0000   172      499.0000      500.0000    88509    0.20%
     20    22      500.0000  1552      499.0000      500.0000    93457    0.20%
     23    25      500.0000   156      499.0000      500.0000    94209    0.20%
     25    27      500.0000   154      499.0000      500.0000    95622    0.20%
     27    29      500.0000   153      499.0000      500.0000    98749    0.20%
Elapsed time = 83.90 sec. (75400.70 ticks, tree = 0.79 MB, solutions = 3)
     30    32      500.0000   169      499.0000      500.0000   110190    0.20%
     31    33      500.0000    82      499.0000      500.0000   110193    0.20%
     33    35      500.0000   117      499.0000      500.0000   119741    0.20%
     35    37      500.0000   246      499.0000      500.0000   127264    0.20%
     37    39      500.0000    61      499.0000      500.0000   127291    0.20%
     40    42      500.0000    61      499.0000      500.0000   128080    0.20%
     42    44      500.0000    82      499.0000      500.0000   131431    0.20%
     43    45      500.0000   210      499.0000      500.0000   132778    0.20%
     45    47      500.0000   161      499.0000      500.0000   136178    0.20%
     46    48      500.0000    80      499.0000      500.0000   137428    0.20%
Elapsed time = 109.95 sec. (99720.16 ticks, tree = 1.39 MB, solutions = 3)
     47    49      500.0000   153      499.0000      500.0000   141686    0.20%
     48    50      500.0000    81      499.0000      500.0000   143658    0.20%
     49    51      500.0000   196      499.0000      500.0000   149382    0.20%
     50    52      500.0000    93      499.0000      500.0000   151815    0.20%
     52    54      500.0000    58      499.0000      500.0000   152956    0.20%
     53    55      500.0000   581      499.0000      500.0000   160789    0.20%
     54    56      500.0000   329      499.0000      500.0000   180214    0.20%
     55    57      500.0000   207      499.0000      500.0000   187029    0.20%
     56    58      500.0000   209      499.0000      500.0000   195124    0.20%
     57    59      500.0000   221      499.0000      500.0000   196701    0.20%
Elapsed time = 144.66 sec. (130036.14 ticks, tree = 1.65 MB, solutions = 3)
     58    60      500.0000   263      499.0000      500.0000   206294    0.20%
     60    62      500.0000   190      499.0000      500.0000   207620    0.20%
     61    63      500.0000   232      499.0000      500.0000   210706    0.20%
     63    65      500.0000   218      499.0000      500.0000   211516    0.20%
     65    67      500.0000   224      499.0000      500.0000   214088    0.20%
     67    69      500.0000   328      499.0000      500.0000   222349    0.20%
     69    71      500.0000   234      499.0000      500.0000   225288    0.20%
     70    72      500.0000   208      499.0000      500.0000   225424    0.20%
     71    73      500.0000   215      499.0000      500.0000   227180    0.20%
     73    75      500.0000   217      499.0000      500.0000   230011    0.20%
Elapsed time = 197.67 sec. (176102.30 ticks, tree = 2.16 MB, solutions = 3)
     75    77      500.0000   229      499.0000      500.0000   232950    0.20%
     77    79      500.0000   203      499.0000      500.0000   235610    0.20%
     79    81      500.0000   232      499.0000      500.0000   237488    0.20%
     81    83      500.0000   190      499.0000      500.0000   238712    0.20%
     82    84      500.0000   174      499.0000      500.0000   245335    0.20%
     84    86      500.0000   145      499.0000      500.0000   247932    0.20%
     87    89      500.0000   130      499.0000      500.0000   250052    0.20%
     89    91      500.0000   288      499.0000      500.0000   255211    0.20%
     90    92      500.0000   141      499.0000      500.0000   255383    0.20%
     93    95      500.0000   145      499.0000      500.0000   258022    0.20%
Elapsed time = 223.97 sec. (199045.30 ticks, tree = 2.98 MB, solutions = 3)
     96    98      500.0000   104      499.0000      500.0000   259562    0.20%
     98   100      500.0000   137      499.0000      500.0000   263869    0.20%
    100   102      500.0000   100      499.0000      500.0000   267515    0.20%
    102   104      500.0000   108      499.0000      500.0000   271530    0.20%
    104   106      500.0000    96      499.0000      500.0000   277032    0.20%
    105   107      500.0000   267      499.0000      500.0000   287112    0.20%
    107   109      500.0000    96      499.0000      500.0000   288698    0.20%
    108   110      500.0000   207      499.0000      500.0000   290778    0.20%
    110   112      500.0000   129      499.0000      500.0000   292849    0.20%
    112   114      500.0000   147      499.0000      500.0000   294026    0.20%
Elapsed time = 243.29 sec. (216389.38 ticks, tree = 3.68 MB, solutions = 3)
    113   115      500.0000   184      499.0000      500.0000   301615    0.20%
    115   117      500.0000   235      499.0000      500.0000   305833    0.20%
    118   120      500.0000   123      499.0000      500.0000   306567    0.20%
    120   122      500.0000    85      499.0000      500.0000   307938    0.20%
    122   124      500.0000    82      499.0000      500.0000   309701    0.20%
    125   127      500.0000    79      499.0000      500.0000   310574    0.20%
    129   131      500.0000    69      499.0000      500.0000   311518    0.20%
    132   134      500.0000    69      499.0000      500.0000   314081    0.20%
    135   137      500.0000    52      499.0000      500.0000   318038    0.20%
    139   141      500.0000    50      499.0000      500.0000   319169    0.20%
Elapsed time = 260.50 sec. (231371.79 ticks, tree = 4.78 MB, solutions = 3)
    143   145      500.0000    50      499.0000      500.0000   319446    0.20%
    147   149      500.0000    30      499.0000      500.0000   320684    0.20%
    150   152      500.0000   281      499.0000      500.0000   332454    0.20%
    154   156      500.0000    14      499.0000      500.0000   334835    0.20%
    156   158      500.0000   160      499.0000      500.0000   343372    0.20%
    158   160      500.0000   170      499.0000      500.0000   352683    0.20%
    160   162      500.0000    54      499.0000      500.0000   354789    0.20%
    164   166      500.0000   480      499.0000      500.0000   361724    0.20%
*   168     1      integral     0      500.0000      500.0000   363369    0.00%

Root node processing (before b&c):
  Real time             =   32.61 sec. (30389.62 ticks)
Sequential b&c:
  Real time             =  248.52 sec. (220501.85 ticks)
                          ------------
Total (root+branch&cut) =  281.12 sec. (250891.47 ticks)
Primal:	500
Dual:	500
Status:	Optimal
Time:	281.19
Sequence:
	17
	7
	6
	17
	7
	5
	8
	7
	13
	17
	7
	6
	17
	14
	13
	17
	4
	16
	8
	6
	16
	8
	5
	7
	17
	3
	16
	8
	13
	14
	17
	6
	7
	8
	3
	7
	9
	13
	11
	9
	13
	11
	9
	4
	11
	1
	5
	12
	10
	6
	0
	10
	15
	0
	10
	2
	0
	10
	6
	12
	1
	16
	12
	19
	3
	11
	1
	15
	11
	1
	15
	11
	1
	15
	0
	10
	15
	0
	10
	2
	0
	10
	2
	3
	18
	2
	4
	18
	2
	4
	18
	2
	4
	18
	3
	2
	18
	4
	2
	18
	4
	2
	10
	0
	6
	10
	12
	5
	19
	12
	7
	1
	12
	16
	19
	12
	16
	19
	12
	7
	19
	12
	16
	1
	2
	11
	1
	2
	11
	1
	15
	11
	1
	15
	0
	10
	15
	0
	1
	15
	11
	1
	15
	11
	1
	15
	0
	10
	15
	0
	10
	15
	0
	10
	4
	12
	1
	7
	12
	1
	14
	12
	1
	14
	12
	19
	16
	12
	19
	7
	12
	19
	16
	12
	1
	7
	12
	1
	7
	5
	8
	14
	6
	8
	7
	4
	17
	6
	14
	17
	4
	14
	17
	4
	14
	17
	13
	16
	8
	5
	7
	17
	3
	7
	17
	4
	14
	17
	13
	7
	17
	3
	3
	18
	2
	5
	19
	12
	7
	19
	12
	16
	19
	0
	7
	9
	0
	7
	9
	13
	11
	9
	6
	11
	9
	4
	11
	9
	6
	11
	9
	4
	11
	9
	13
	11
	9
	6
	11
	9
	13
	11
	9
	3
	16
	8
	5
	14
	17
	13
	5
	9
	11
	13
	9
	11
	13
	9
	11
	13
	9
	11
	13
	9
	11
	13
	9
	11
	4
	9
	11
	13
	9
	7
	6
	17
	14
	13
	17
	14
	5
	8
	7
	5
	8
	16
	13
	8
	14
	4
	8
	16
	13
	8
	7
	5
	1
	0
	3
	9
	0
	16
	9
	3
	11
	1
	15
	0
	10
	15
	0
	1
	2
	3
	18
	2
	4
	18
	2
	3
	10
	2
	4
	18
	2
	3
	18
	2
	4
	18
	2
	4
	18
	2
	4
	18
	3
	2
	18
	3
	3
	8
	16
	13
	17
	14
	13
	8
	5
	7
	8
	5
	7
	12
	19
	7
	12
	19
	14
	0
	9
	14
	5
	8
	16
	3
	8
	16
	13
	8
	16
	4
	17
	14
	6
	17
	14
	5
	8
	14
	5
	8
	6
	7
	8
	3
	3
	18
	4
	2
	18
	4
	2
	18
	4
	2
	18
	4
	5
	8
	4
	16
	8
	13
	14
	17
	13
	14
	8
	6
	7
	17
	13
	14
	17
	13
	16
	8
	5
	7
	8
	6
	16
	8
	5
	7
	17
	4
	16
	8
	13
	14
	12
	19
	14
	12
	19
	16
	12
	19
	16
	12
	1
	16
	12
	19
	16
	12
	19
	7
	12
	4
	10
	0
	15
	10
	0
	15
	10
	0
	15
	10
	0
	15
	10
	0
	15
	1
	7
	12
	19
	7
	12
	1
	3
	16
	8
	13
	7
	5
	8
	16
	6
	8
	5
	14
	17
	13
	14
	8
